Route #1: 35 123 14 37 122 22 119 80 69 39 29 42 131 140 112 26 75 94 3 76 129 113 63 10 103
Route #2: 9 73 95 77 141 15 38 108 92 134 105 138 34 21 23 132 104 62 27 106 24 117
Route #3: 116 78 17 2 93 50 49 51 88 41 86 48 58 135 20 52 59 40 70 124 109
Route #4: 4 66 101 67 46 30 121 87 107 1 72 102 6 31 98 79 60 111 53 110 114 43 8 5
Route #5: 127 25 36 16 32 7 19 97 120 85 90 44 64 61 45 89 65 12 54 118 128
Route #6: 91 56 83 28 133 18 11 100 74 81 47 96 33 125 82 137 55 142 139 57 99 71 130
Route #7: 68 84 115 136 13 126
Cost 17454.36805665067